p cnf 138 471
-3 -1 0
-3 2 0
1 -2 3 0
-6 -4 0
-6 -5 0
4 5 6 0
2 -6 -7 0
-2 6 -7 0
2 6 7 0
-2 -6 7 0
-8 3 0
-8 7 0
-3 -7 8 0
12 -10 0
12 -11 0
10 11 -12 0
13 9 0
13 12 0
-9 -12 -13 0
-2 -13 -14 0
2 13 -14 0
-2 13 14 0
2 -13 14 0
15 -14 0
15 -5 0
14 5 -15 0
17 -16 0
17 13 0
16 -13 -17 0
-18 19 -20 0
18 -19 -20 0
-18 -19 20 0
18 19 20 0
22 -21 0
22 10 0
21 -10 -22 0
23 2 0
23 22 0
-2 -22 -23 0
-18 23 -24 0
18 -23 -24 0
-18 -23 24 0
18 23 24 0
25 -20 0
25 -24 0
20 24 -25 0
-26 18 0
-26 -25 0
-18 25 26 0
17 26 -27 0
-17 -26 -27 0
17 -26 27 0
-17 26 27 0
28 15 0
28 -27 0
-15 27 -28 0
29 8 0
29 28 0
-8 -28 -29 0
7 -12 -30 0
-7 12 -30 0
7 12 30 0
-7 -12 30 0
-26 19 -31 0
26 -19 -31 0
-26 -19 31 0
26 19 31 0
-6 -7 -32 0
6 7 -32 0
-6 7 32 0
6 -7 32 0
33 -32 0
33 11 0
32 -11 -33 0
-31 -33 -34 0
31 33 -34 0
-31 33 34 0
31 -33 34 0
-35 30 0
-35 34 0
-30 -34 35 0
37 12 0
37 36 0
-12 -36 -37 0
-38 24 -39 0
38 -24 -39 0
-38 -24 39 0
38 24 39 0
40 -37 0
40 -39 0
37 39 -40 0
41 23 0
41 -22 0
-23 22 -41 0
-41 -5 -42 0
41 5 -42 0
-41 5 42 0
41 -5 42 0
-43 42 0
-43 -19 0
-42 19 43 0
40 43 -44 0
-40 -43 -44 0
40 -43 44 0
-40 43 44 0
13 11 -45 0
-13 -11 -45 0
13 -11 45 0
-13 11 45 0
-46 45 0
-46 -14 0
-45 14 46 0
46 26 -47 0
-46 -26 -47 0
46 -26 47 0
-46 26 47 0
48 -11 0
48 -22 0
11 22 -48 0
26 48 -49 0
-26 -48 -49 0
26 -48 49 0
-26 48 49 0
-50 49 0
-50 -25 0
-49 25 50 0
-51 -23 0
-51 -7 0
23 7 51 0
52 -50 0
52 -51 0
50 51 -52 0
-53 -6 0
-53 5 0
6 -5 53 0
-54 -53 0
-54 -12 0
53 12 54 0
-55 -25 0
-55 54 0
25 -54 55 0
-9 55 -56 0
9 -55 -56 0
-9 -55 56 0
9 55 56 0
57 52 0
57 56 0
-52 -56 -57 0
58 -47 0
58 -57 0
47 57 -58 0
-59 44 0
-59 -58 0
-44 58 59 0
-60 -1 0
-60 -19 0
1 19 60 0
-61 -60 0
-61 53 0
60 -53 61 0
32 24 -62 0
-32 -24 -62 0
32 -24 62 0
-32 24 62 0
63 61 0
63 -62 0
-61 62 -63 0
-64 59 0
-64 -63 0
-59 63 64 0
-35 64 -65 0
35 -64 -65 0
-35 -64 65 0
35 64 65 0
-66 42 0
-66 -23 0
-42 23 66 0
67 -65 0
67 66 0
65 -66 -67 0
-68 4 -69 0
68 -4 -69 0
-68 -4 69 0
68 4 69 0
-60 70 -71 0
60 -70 -71 0
-60 -70 71 0
60 70 71 0
-72 2 0
-72 71 0
-2 -71 72 0
-69 -72 -73 0
69 72 -73 0
-69 72 73 0
69 -72 73 0
-74 -23 0
-74 9 0
23 -9 74 0
-75 36 0
-75 5 0
-36 -5 75 0
76 -10 0
76 -19 0
10 19 -76 0
-77 -17 0
-77 38 0
17 -38 77 0
78 -14 0
78 70 0
14 -70 -78 0
-23 -22 -79 0
23 22 -79 0
-23 22 79 0
23 -22 79 0
-80 -79 0
-80 -19 0
79 19 80 0
-81 -78 0
-81 80 0
78 -80 81 0
-77 81 -82 0
77 -81 -82 0
-77 -81 82 0
77 81 82 0
83 -76 0
83 82 0
76 -82 -83 0
84 75 0
84 -83 0
-75 83 -84 0
-74 84 -85 0
74 -84 -85 0
-74 -84 85 0
74 84 85 0
-86 73 0
-86 85 0
-73 -85 86 0
-32 -37 -87 0
32 37 -87 0
-32 37 87 0
32 -37 87 0
88 20 0
88 21 0
-20 -21 -88 0
88 22 -89 0
-88 -22 -89 0
88 -22 89 0
-88 22 89 0
89 4 -90 0
-89 -4 -90 0
89 -4 90 0
-89 4 90 0
87 -90 -91 0
-87 90 -91 0
87 90 91 0
-87 -90 91 0
-86 -91 -92 0
86 91 -92 0
-86 91 92 0
86 -91 92 0
93 -4 0
93 -48 0
4 48 -93 0
94 -92 0
94 -93 0
92 93 -94 0
95 -67 0
95 94 0
67 -94 -95 0
-96 -29 0
-96 95 0
29 -95 96 0
-97 -22 0
-97 11 0
22 -11 97 0
97 -41 -98 0
-97 41 -98 0
97 41 98 0
-97 -41 98 0
-5 22 -99 0
5 -22 -99 0
-5 -22 99 0
5 22 99 0
100 -6 0
100 -9 0
6 9 -100 0
101 -99 0
101 -100 0
99 100 -101 0
-102 -98 0
-102 -101 0
98 101 102 0
-103 -60 0
-103 -11 0
60 11 103 0
97 -103 -104 0
-97 103 -104 0
97 103 104 0
-97 -103 104 0
105 10 0
105 -17 0
-10 17 -105 0
106 105 0
106 -99 0
-105 99 -106 0
107 -14 0
107 -16 0
14 16 -107 0
5 48 -108 0
-5 -48 -108 0
5 -48 108 0
-5 48 108 0
-108 89 -109 0
108 -89 -109 0
-108 -89 109 0
108 89 109 0
110 -88 0
110 -18 0
88 18 -110 0
-111 -109 0
-111 110 0
109 -110 111 0
-112 -107 0
-112 -111 0
107 111 112 0
-113 -106 0
-113 112 0
106 -112 113 0
114 104 0
114 -113 0
-104 113 -114 0
102 114 -115 0
-102 -114 -115 0
102 -114 115 0
-102 114 115 0
-42 -88 -116 0
42 88 -116 0
-42 88 116 0
42 -88 116 0
-117 19 0
-117 -116 0
-19 116 117 0
118 -115 0
118 117 0
115 -117 -118 0
96 118 -119 0
-96 -118 -119 0
96 -118 119 0
-96 118 119 0
120 -9 0
120 -25 0
9 25 -120 0
-121 21 0
-121 -38 0
-21 38 121 0
-122 121 0
-122 25 0
-121 -25 122 0
120 -122 -123 0
-120 122 -123 0
120 122 123 0
-120 -122 123 0
22 116 -124 0
-22 -116 -124 0
22 -116 124 0
-22 116 124 0
-50 -60 -125 0
50 60 -125 0
-50 60 125 0
50 -60 125 0
126 79 0
126 12 0
-79 -12 -126 0
128 -127 0
128 -99 0
127 99 -128 0
-129 126 0
-129 -128 0
-126 128 129 0
130 125 0
130 129 0
-125 -129 -130 0
-124 -130 -131 0
124 130 -131 0
-124 130 131 0
124 -130 131 0
-132 -123 0
-132 -131 0
123 131 132 0
-133 -88 0
-133 5 0
88 -5 133 0
-133 -7 -134 0
133 7 -134 0
-133 7 134 0
133 -7 134 0
-4 -6 -135 0
4 6 -135 0
-4 6 135 0
4 -6 135 0
-136 -134 0
-136 135 0
134 -135 136 0
137 132 0
137 136 0
-132 -136 -137 0
138 119 0
138 -137 0
-119 137 -138 0
-45 136 0
33 -51 -95 9 93 -15 0
66 31 44 106 72 59 0
-42 -97 0
-138 -37 -25 -91 4 99 0
-60 58 0
131 -107 0
-59 -34 -131 116 107 101 0
-46 116 -23 -111 -45 0
-7 18 73 54 -98 52 0
47 -118 0
-13 110 -46 -45 124 0
121 94 90 0
37 134 0
33 -92 125 59 21 26 0
8 -87 -138 -54 -78 0
32 116 -41 0
-28 54 -75 -101 0
-82 -65 59 0
-15 26 -24 10 -125 0
-66 70 -129 -55 -87 0
45 44 134 55 -83 113 0
27 105 99 -96 -127 0
34 -45 30 0
11 113 -25 0
31 -94 77 1 0
74 -133 89 -75 -49 111 0
133 37 -78 -117 75 -73 0
86 -14 -110 0
102 -46 -15 -92 14 0
-73 -115 0
-11 23 -114 -28 -60 0
100 42 -48 138 0
-51 82 117 0
67 -79 70 0
123 -89 137 0
-2 -114 106 58 0
21 -90 -2 0
11 -18 29 -121 -51 100 0
45 1 64 2 15 -94 0
-2 15 0
-59 -43 -121 -13 106 48 0
-12 134 -126 -56 30 -91 0
33 97 0
-23 123 84 101 -48 0
-126 34 0
-28 -126 137 -135 -77 0
-40 30 0
-116 -61 -38 -39 0
16 -24 35 45 -93 0
77 -92 0
-117 132 48 76 0
59 21 90 38 -47 68 0
36 54 0
-50 62 36 -116 -39 0
-64 -97 0
-2 43 -32 105 65 -72 0
-54 -125 68 111 62 0
-98 79 59 -62 -46 -2 0
-54 -116 0
-100 -74 136 0
138 0
